2048097
0,31,19,225,112,92,46,44,186,102,185,170,149,145,11,152,179,135,85,72,69,22,184,9,199,197,196,187,10,45,60,131,114,142,213,224,133,47,96,13,56,78,84,94,123,163,164,118,28,24,122,37,202,128,169,141,216,8,106,95,165,33,74,204,80,26,39,209,59,207,190,159,208,181,138,193,12,16,88,93,34,77,228,154,111,61,129,54,116,4,155,220,130,146,126,82,134,48,6,86,195,178,101,35,173,110,210,63,14,151,136,50,97,172,148,147,166,203,200,188,107,70,177,206,71,62,132,161,139,156,30,221,157,189,201,104,98,76,65,55,17,53,52,91,99,174,215,218,140,105,127,40,120,23,83,124,153,125,2,158,137,119,18,171,211,212,1,81,79,192,194,113,103,115,183,160,27,49,25,143,219,175,121,167,229,223,32,3,89,87,227,108,168,150,100,90,21,51,58,57,7,176,41,162,38,117,73,66,42,180,64,43,5,214,36,191,144,29,20,67,222,226,75,109,205,68,217,198,15,182,0